This is Ipopt version 3.10.1, running with linear solver mumps.

Number of nonzeros in equality constraint Jacobian...:      141
Number of nonzeros in inequality constraint Jacobian.:        0
Number of nonzeros in Lagrangian Hessian.............:     2019

Total number of variables............................:       72
                     variables with only lower bounds:        0
                variables with lower and upper bounds:       72
                     variables with only upper bounds:        0
Total number of equality constraints.................:       47
Total number of inequality constraints...............:        0
        inequality constraints with only lower bounds:        0
   inequality constraints with lower and upper bounds:        0
        inequality constraints with only upper bounds:        0

iter    objective    inf_pr   inf_du lg(mu)  ||d||  lg(rg) alpha_du alpha_pr  ls
   0 -8.7209412e-04 1.57e-11 2.86e-03  -1.0 0.00e+00    -  0.00e+00 0.00e+00   0
   1 -8.9147640e-04 2.22e-16 2.06e-06  -1.7 1.77e-02    -  1.00e+00 1.00e+00f  1
   2 -9.4497337e-04 4.44e-16 1.36e-05  -2.5 4.18e-02    -  1.00e+00 1.00e+00f  1
   3 -1.0451871e-03 2.22e-16 3.72e-05  -3.8 2.15e-02    -  9.94e-01 1.00e+00f  1
   4 -1.4994725e-03 4.44e-16 6.39e-04  -5.7 6.18e-02  -2.0 8.89e-01 1.00e+00f  1
   5 -1.9072663e-03 1.33e-15 1.00e-03  -5.7 3.58e-02  -1.6 1.00e+00 1.00e+00f  1
   6 -1.9562294e-03 9.99e-16 1.15e-02  -5.7 2.83e+00  -2.1 3.54e-02 1.40e-01h  1
   7 -2.3605399e-03 2.22e-16 6.90e-03  -5.7 2.98e-01  -1.6 1.00e+00 1.00e+00f  1
   8 -2.8948371e-03 4.10e-12 1.72e-03  -5.7 2.58e-02  -1.2 1.00e+00 1.00e+00f  1
   9 -4.6685181e-03 3.43e-12 3.21e-03  -5.7 2.89e-01  -1.7 1.00e+00 1.92e-01f  1
iter    objective    inf_pr   inf_du lg(mu)  ||d||  lg(rg) alpha_du alpha_pr  ls
  10 -5.0866660e-03 3.06e-12 5.00e-03  -5.7 8.39e-02  -1.3 1.00e+00 1.21e-01f  1
  11 -5.0823786e-03 3.06e-12 3.42e-03  -5.7 3.80e-01  -1.7 1.21e-01 2.44e-04f 13
  12 -5.0681025e-03 3.06e-12 1.67e-02  -5.7 5.22e+01  -1.3 2.61e-03 2.25e-05f 10
  13 -1.0916797e-03 6.66e-16 2.21e-02  -5.7 2.82e-01  -1.8 2.11e-01 1.00e+00h  1
  14 -1.3261657e-03 6.66e-16 1.75e-02  -5.7 4.68e-01  -2.3 8.60e-01 7.25e-02f  1
  15 -2.1800277e-03 1.78e-15 1.35e-03  -5.7 9.14e-02  -1.8 1.00e+00 1.00e+00F  1
  16 -2.8601604e-03 2.22e-16 1.77e-03  -5.7 4.49e-02  -1.4 1.00e+00 9.94e-01f  1
  17 -3.9788189e-03 2.22e-16 1.24e-02  -5.7 2.75e+01  -1.9 1.63e-02 1.72e-03f  1
  18 -7.0229922e-03 2.22e-16 5.01e-03  -5.7 1.37e-01  -1.5 1.00e+00 5.23e-01f  1
  19 -7.8941446e-03 7.17e-13 5.89e-03  -5.7 6.60e-02  -1.0 1.00e+00 2.21e-01f  1
iter    objective    inf_pr   inf_du lg(mu)  ||d||  lg(rg) alpha_du alpha_pr  ls
  20 -9.0747805e-03 4.44e-16 5.27e-03  -5.7 2.06e-02  -0.6 1.00e+00 1.00e+00f  1
  21 -1.5517984e-02 2.43e-12 1.07e-02  -5.7 1.22e-01  -1.1 1.00e+00 6.38e-01f  1
  22 -1.5514292e-02 2.43e-12 1.08e-02  -5.7 3.91e-01  -1.6 2.00e-03 1.22e-04f 14
  23 -1.5510121e-02 2.43e-12 1.98e-02  -5.7 9.64e+00  -1.1 1.45e-02 4.87e-06f 15
  24 -2.1235842e-02 4.36e-12 1.19e-02  -5.7 5.52e-02  -0.7 1.00e+00 1.00e+00f  1
  25 -7.8949869e-03 4.32e-12 2.85e-02  -5.7 2.12e+01  -1.2 1.18e-03 9.09e-03h  3
  26 -5.2846494e-03 4.32e-12 1.73e-02  -5.7 1.38e+02  -1.7 1.64e-03 5.99e-04h  4
  27 -7.4020514e-03 2.22e-16 3.81e-03  -5.7 6.81e-02  -1.2 1.00e+00 1.00e+00f  1
  28 -1.3006234e-02 2.22e-16 3.78e-02  -5.7 8.02e+00  -1.7 7.49e-02 1.36e-02f  1
  29 -1.6720288e-02 2.22e-16 4.76e-02  -5.7 3.38e-01  -1.3 1.00e+00 1.39e-01f  1
iter    objective    inf_pr   inf_du lg(mu)  ||d||  lg(rg) alpha_du alpha_pr  ls
  30 -2.4340519e-02 3.59e-12 1.25e-02  -5.7 7.83e-02  -0.9 1.00e+00 8.91e-01f  1
  31 -2.4338645e-02 3.59e-12 1.25e-02  -5.7 6.26e-01  -1.3 9.05e-03 2.49e-05f 16
  32 -2.4329016e-02 3.58e-12 2.75e-02  -5.7 2.08e+01  -0.9 5.48e-03 1.56e-05f 10
  33 -9.6654150e-03 2.21e-13 6.02e-02  -5.7 5.00e-01  -1.4 2.44e-01 9.38e-01h  1
  34 -9.7606891e-03 2.04e-13 5.52e-02  -5.7 2.38e-01  -1.0 2.13e-01 7.78e-02f  1
  35 -1.0256987e-02 2.00e-13 5.99e-02  -5.7 4.79e-01  -1.4 9.62e-01 1.69e-02f  1
  36 -1.1371446e-02 3.53e-12 3.86e-02  -5.7 6.98e-02  -1.0 1.00e+00 2.94e-01F  1
  37 -1.1375658e-02 3.53e-12 6.11e-02  -5.7 6.84e-01  -1.5 7.48e-01 1.09e-04f 11
  38 -1.6731816e-02 4.44e-16 6.70e-03  -5.7 8.60e-02  -1.1 1.00e+00 1.00e+00F  1
  39 -1.8190541e-02 8.95e-13 7.56e-03  -5.7 3.75e-02  -0.6 1.00e+00 4.67e-01f  1
iter    objective    inf_pr   inf_du lg(mu)  ||d||  lg(rg) alpha_du alpha_pr  ls
  40 -2.4520283e-02 5.21e-13 9.17e-03  -5.7 1.55e-01  -1.1 5.00e-01 4.17e-01f  1
  41 -2.5485150e-02 4.20e-13 2.13e-02  -5.7 4.95e-02  -0.7 1.00e+00 1.94e-01f  1
  42 -3.8001119e-02 5.56e-12 1.49e-02  -5.7 2.39e-01  -1.2 6.01e-01 4.50e-01f  1
  43 -4.2382106e-02 3.12e-12 3.20e-02  -5.7 6.65e-02  -0.7 1.00e+00 4.39e-01f  1
  44 -4.3174146e-02 3.08e-12 3.09e-02  -5.7 1.61e+00  -1.2 5.67e-02 1.12e-02f  1
  45 -4.9737265e-02 6.01e-12 1.55e-02  -5.7 9.63e-02  -0.8 1.00e+00 4.36e-01f  1
  46 -5.0319765e-02 5.87e-12 1.34e-02  -5.7 3.40e-02  -0.4 1.00e+00 9.47e-02f  1
  47 -5.8663017e-02 1.70e-11 2.31e-02  -5.7 1.05e-01  -0.8 1.00e+00 6.38e-01f  1
  48 -6.3725514e-02 1.27e-12 1.59e-02  -5.7 4.15e-02  -0.4 1.00e+00 9.25e-01f  1
  49 -6.9488332e-02 1.05e-12 2.16e-02  -5.7 2.64e-01  -0.9 4.95e-01 1.76e-01f  1
iter    objective    inf_pr   inf_du lg(mu)  ||d||  lg(rg) alpha_du alpha_pr  ls
  50 -7.2695571e-02 4.35e-12 2.11e-02  -5.7 6.93e-02  -0.5 1.00e+00 3.30e-01f  1
  51 -9.7067636e-02 1.57e-11 3.35e-02  -5.7 4.29e-01  -0.9 1.98e-01 3.04e-01f  1
  52 -9.9842289e-02 1.65e-11 6.25e-02  -5.7 1.44e-01  -0.5 1.00e+00 7.35e-02f  1
  53 -1.0163546e-01 1.22e-11 5.40e-02  -5.7 3.11e-02  -0.1 7.58e-01 2.62e-01f  1
  54 -1.0261544e-01 1.18e-11 8.15e-02  -5.7 1.35e-01  -0.6 7.38e-01 3.64e-02f  1
  55 -1.0407056e-01 9.40e-12 3.34e-02  -5.7 3.11e-02  -0.1 1.00e+00 2.01e-01f  1
  56 -1.1801452e-01 1.14e-11 2.49e-02  -5.7 1.03e-01  -0.6 7.78e-01 4.97e-01f  1
  57 -1.2926231e-01 2.22e-16 7.31e-02  -5.7 3.58e-02  -0.2 2.53e-01 1.00e+00f  1
  58 -1.5916901e-01 2.22e-16 8.65e-02  -5.7 6.32e-01  -0.7 3.22e-02 1.33e-01f  1
  59 -1.5916186e-01 2.22e-16 8.65e-02  -5.7 3.71e-01  -1.1 3.22e-04 5.80e-05f 15
iter    objective    inf_pr   inf_du lg(mu)  ||d||  lg(rg) alpha_du alpha_pr  ls
  60 -1.6553295e-01 3.88e-12 2.20e-01  -5.7 4.08e-01  -0.7 7.01e-01 5.43e-02f  1
  61 -2.7399764e-01 1.82e-12 4.80e-01  -5.7 9.57e-01  -1.2 6.73e-04 5.31e-01f  1
  62 -2.7485381e-01 1.80e-12 4.79e-01  -5.7 6.98e-02   0.1 2.63e-03 1.16e-02f  1
  63 -2.8738451e-01 8.58e-12 3.44e-01  -5.7 4.20e-01  -0.3 2.66e-01 2.63e-02f  1
  64 -3.6561282e-01 1.00e-10 1.34e-01  -5.7 6.51e-02   0.1 1.00e+00 7.84e-01f  1
  65 -3.8963189e-01 1.09e-10 1.40e-01  -5.7 6.61e+00  -0.4 1.33e-04 1.88e-03f  1
  66 -3.9016108e-01 1.09e-10 1.39e-01  -5.7 1.13e-01   0.0 7.40e-02 4.62e-03f  1
  67 -3.9091945e-01 1.08e-10 2.34e-01  -5.7 1.78e-01  -0.5 9.54e-02 5.89e-03f  1
  68 -3.9144577e-01 1.08e-10 2.84e-01  -5.7 8.47e-01    -  8.88e-02 1.54e-03f  1
  69 -3.9911418e-01 1.03e-10 3.03e-01  -5.7 5.89e-01    -  7.74e-02 4.29e-02f  1
iter    objective    inf_pr   inf_du lg(mu)  ||d||  lg(rg) alpha_du alpha_pr  ls
  70 -4.0147420e-01 1.02e-10 3.06e-01  -5.7 6.68e-01    -  1.23e-01 1.19e-02f  1
  71 -4.1704770e-01 6.73e-11 2.23e-01  -5.7 1.49e-01  -0.9 8.12e-02 3.42e-01f  1
  72 -4.6742303e-01 2.52e-11 1.67e-01  -5.7 3.25e-01  -1.4 1.00e+00 6.26e-01f  1
  73 -4.7287923e-01 2.48e-11 1.68e-01  -5.7 1.56e+00  -1.9 1.53e-02 1.51e-02f  1
  74 -4.9932633e-01 2.47e-11 1.04e+00  -5.7 4.50e+01  -2.4 1.98e-02 2.46e-03f  1
  75 -4.9924832e-01 2.39e-11 5.89e-01  -5.7 1.41e-02  -2.8 8.65e-01 3.12e-02f  6
  76 -4.9989351e-01 2.22e-16 4.85e-04  -5.7 1.58e-02  -3.3 1.00e+00 1.00e+00f  1
  77 -4.9988207e-01 2.22e-16 2.55e-01  -5.7 6.35e-05    -  3.77e-01 1.00e+00f  1
  78 -4.9988203e-01 2.22e-16 9.39e-12  -5.7 4.37e-06    -  1.00e+00 1.00e+00f  1
  79 -4.9999999e-01 2.22e-16 4.14e-08  -8.6 9.14e-05  -3.8 1.00e+00 1.00e+00f  1
iter    objective    inf_pr   inf_du lg(mu)  ||d||  lg(rg) alpha_du alpha_pr  ls
  80 -4.9999996e-01 4.83e-12 5.95e-08  -8.6 3.36e-08   0.2 1.00e+00 1.00e+00h  1
  81 -4.9999996e-01 1.46e-12 5.79e-10  -8.6 9.81e-10  -0.2 1.00e+00 1.00e+00h  1

Number of Iterations....: 81

                                   (scaled)                 (unscaled)
Objective...............:  -4.9999995796589825e-01   -4.9999995796589825e-01
Dual infeasibility......:   5.7868970834624421e-10    5.7868970834624421e-10
Constraint violation....:   1.4608314558017810e-12    1.4608314558017810e-12
Complementarity.........:   2.5124225727373197e-09    2.5124225727373197e-09
Overall NLP error.......:   2.5124225727373197e-09    2.5124225727373197e-09


Number of objective function evaluations             = 197
Number of objective gradient evaluations             = 82
Number of equality constraint evaluations            = 197
Number of inequality constraint evaluations          = 0
Number of equality constraint Jacobian evaluations   = 1
Number of inequality constraint Jacobian evaluations = 0
Number of Lagrangian Hessian evaluations             = 81
Total CPU secs in IPOPT (w/o function evaluations)   =      0.260
Total CPU secs in NLP function evaluations           =      2.010

EXIT: Optimal Solution Found.
